Automatic mesh
0
Gamma
{k} {k} {k}
 0   0   0 
